(set-logic QF_S)
(declare-fun var0 () String)
(assert (RegexIn var0 (RegexConcat (RegexUnion (RegexStar (Str2Reg "00")) (RegexStar (Str2Reg "11"))) (RegexConcat (RegexUnion (RegexStar (Str2Reg "22")) (RegexStar (Str2Reg "33"))) (RegexConcat (RegexPlus (RegexPlus (Str2Reg "4"))) (RegexConcat (RegexPlus (RegexPlus (Str2Reg "555"))) (RegexConcat (RegexStar (RegexStar (Str2Reg "6"))) (RegexConcat (RegexUnion (RegexStar (Str2Reg "77")) (RegexStar (Str2Reg "888"))) (RegexConcat (RegexUnion (RegexPlus (Str2Reg "999")) (RegexPlus (Str2Reg "aa"))) (RegexConcat (RegexStar (RegexPlus (Str2Reg "bb"))) (RegexConcat (RegexUnion (RegexUnion (Str2Reg "c") (Str2Reg "dd")) (RegexUnion (Str2Reg "e") (Str2Reg "ff"))) (RegexConcat (RegexUnion (RegexPlus (Str2Reg "gg")) (RegexPlus (Str2Reg "hhh"))) (RegexConcat (RegexPlus (RegexUnion (Str2Reg "iii") (Str2Reg "j"))) (RegexConcat (RegexStar (RegexUnion (Str2Reg "k") (Str2Reg "lll"))) (RegexConcat (RegexPlus (RegexUnion (Str2Reg "mmm") (Str2Reg "nn"))) (RegexConcat (RegexUnion (RegexUnion (Str2Reg "o") (Str2Reg "pp")) (RegexUnion (Str2Reg "qqq") (Str2Reg "r"))) (RegexConcat (RegexPlus (RegexPlus (Str2Reg "s"))) (RegexConcat (RegexUnion (RegexPlus (Str2Reg "ttt")) (RegexPlus (Str2Reg "uuu"))) (RegexConcat (RegexUnion (RegexUnion (Str2Reg "vvv") (Str2Reg "www")) (RegexUnion (Str2Reg "x") (Str2Reg "yy"))) (RegexConcat (RegexPlus (RegexPlus (Str2Reg "zz"))) (RegexConcat (RegexPlus (RegexPlus (Str2Reg "AAA"))) (RegexConcat (RegexUnion (RegexPlus (Str2Reg "BB")) (RegexPlus (Str2Reg "CCC"))) (RegexConcat (RegexPlus (RegexUnion (Str2Reg "D") (Str2Reg "E"))) (RegexConcat (RegexUnion (RegexUnion (Str2Reg "FFF") (Str2Reg "GG")) (RegexUnion (Str2Reg "HHH") (Str2Reg "I"))) (RegexConcat (RegexPlus (RegexStar (Str2Reg "J"))) (RegexConcat (RegexPlus (RegexStar (Str2Reg "KKK"))) (RegexConcat (RegexStar (RegexUnion (Str2Reg "L") (Str2Reg "MMM"))) (RegexConcat (RegexUnion (RegexUnion (Str2Reg "NNN") (Str2Reg "OOO")) (RegexUnion (Str2Reg "PPP") (Str2Reg "QQQ"))) (RegexConcat (RegexStar (RegexPlus (Str2Reg "R"))) (RegexConcat (RegexUnion (RegexPlus (Str2Reg "S")) (RegexPlus (Str2Reg "TT"))) (RegexConcat (RegexPlus (RegexPlus (Str2Reg "U"))) (RegexConcat (RegexUnion (RegexStar (Str2Reg "VV")) (RegexStar (Str2Reg "WW"))) (RegexConcat (RegexStar (RegexUnion (Str2Reg "XX") (Str2Reg "Y"))) (RegexConcat (RegexPlus (RegexUnion (Str2Reg "ZZZ") (Str2Reg "!!!"))) (RegexConcat (RegexStar (RegexStar (Str2Reg "\"\""))) (RegexConcat (RegexUnion (RegexPlus (Str2Reg "###")) (RegexPlus (Str2Reg "$$"))) (RegexConcat (RegexPlus (RegexUnion (Str2Reg "%") (Str2Reg "&"))) (RegexConcat (RegexStar (RegexUnion (Str2Reg "''") (Str2Reg "((("))) (RegexConcat (RegexPlus (RegexUnion (Str2Reg ")))") (Str2Reg "*"))) (RegexConcat (RegexStar (RegexPlus (Str2Reg "++"))) (RegexConcat (RegexStar (RegexStar (Str2Reg ","))) (RegexConcat (RegexStar (RegexStar (Str2Reg "-"))) (RegexConcat (RegexUnion (RegexUnion (Str2Reg ".") (Str2Reg "///")) (RegexUnion (Str2Reg ":::") (Str2Reg ";;;"))) (RegexConcat (RegexStar (RegexStar (Str2Reg "<"))) (RegexUnion (RegexPlus (Str2Reg "=")) (RegexPlus (Str2Reg ">>")))))))))))))))))))))))))))))))))))))))))))))))
(check-sat)